1844301
0,38,134,178,26,33,150,107,88,228,48,162,62,126,66,156,71,35,19,143,61,54,86,77,101,168,129,80,93,34,106,63,43,59,222,46,45,67,202,5,216,3,20,108,170,149,185,145,11,87,169,141,186,37,32,4,29,210,90,95,115,165,160,36,183,8,146,206,225,83,208,207,25,21,14,16,224,175,96,7,193,190,194,56,138,163,197,142,205,192,75,213,9,12,155,137,68,118,147,172,173,180,148,124,226,196,10,130,84,79,60,24,125,113,28,44,220,58,51,102,167,92,203,212,131,187,135,166,164,119,109,144,136,18,219,182,49,39,27,204,214,100,195,191,74,209,116,133,47,110,223,89,227,152,128,81,103,211,171,229,122,123,1,189,174,55,17,65,105,140,221,177,198,30,31,161,154,111,132,70,127,114,13,199,153,94,78,57,50,22,2,15,184,151,159,121,176,217,157,98,99,215,201,104,91,53,52,23,40,218,179,120,76,181,112,69,85,72,97,64,200,41,158,188,6,82,42,73,117,139,0